Si22 O44
1.0
  10.0000000000000000    0.0000000000000000    0.0000000000000000
   0.0000000000000000   10.0000000000000000    0.0000000000000000
   0.0000000000000000    0.0000000000000000   10.0000000000000000
Si O
22 44
direct
   0.5310569329736701    0.3785623236022841    0.5616481013913325 Si
   0.6485266838904673    0.7128170165410809    0.8393761207661773 Si
   0.1196127560539626    0.5267635904422004    0.2442731126654304 Si
   0.3779367282504865    0.3815758519064606    0.0958096433098085 Si
   0.5457542523340145    0.6524107477251956    0.4642299246367942 Si
   0.4020193952200415    0.1491347950311506    0.6721643060566017 Si
   0.1568544934683520    0.1403627992109238    0.9931837413529973 Si
   0.3781240717971532    0.0492984443320786    0.4536704507328466 Si
   0.6875201023523839    0.1651780141950785    0.6676275734511653 Si
   0.6359041168412333    0.1823603776634060    0.3788744546218774 Si
   0.9015283225845404    0.9961193693489363    0.5173575025557885 Si
   0.4612482244493047    0.3561371999063342    0.3648943693033265 Si
   0.8948995916237649    0.5170535121012744    0.1423556361125083 Si
   0.7576177282120213    0.1993983832991408    0.1510542249735223 Si
   0.1858142216793278    0.1367252514487081    0.1957892996656047 Si
   0.9639667702731411    0.4983352104341354    0.6460233944872774 Si
   0.3684626451918949    0.5606825381967026    0.6456125025724215 Si
   0.1315096750279471    0.6198394848100962    0.8721905019780766 Si
   0.4808709510884157    0.1428005410081067    0.1643458159427226 Si
   0.8503000109059803    0.6900037120825299    0.8291887515068697 Si
   0.6671449577724692    0.7573247280832067    0.2584835731393117 Si
   0.3113716306794999    0.7619676898889151    0.7866152420523811 Si
   0.0008444301857492    0.0739662682049095    0.6542641070004346 O
   0.8369181419682574    0.1013732154380094    0.6143503878798259 O
   0.7651715399387405    0.9541908687321285    0.1205199171741259 O
   0.2104880702824495    0.9330186362855657    0.2465977560754570 O
   0.1761260238845549    0.2971608353713437    0.8096680169931252 O
   0.8027337384944833    0.8670290067657090    0.3380087953548684 O
   0.9793019614959768    0.0574445071320854    0.2515815281510497 O
   0.2827816042667333    0.4429612943691592    0.7919430323774795 O
   0.2617193196420451    0.0033104646755705    0.0888917461714948 O
   0.9856723831178769    0.2333844824740285    0.7941635899798577 O
   0.1816165758864037    0.7269375945630762    0.2731380077544119 O
   0.1807598634310428    0.1695570118378933    0.6555487688376858 O
   0.4538447891801224    0.1789362475097046    0.8933106236127760 O
   0.6075646066982290    0.2861210538531328    0.8921372283544895 O
   0.9450491595645765    0.1169553045388205    0.9126896669903383 O
   0.5823200019510317    0.7544448137439435    0.6314045105961569 O
   0.8801542245127831    0.3454211140066661    0.7766837436384479 O
   0.3718149635704677    0.9488816605922260    0.1787249428035647 O
   0.3423308764292016    0.5513566330516196    0.4336738809085240 O
   0.3160663735502269    0.2061708875961142    0.2325096844020541 O
   0.4639708912674501    0.5652984171272538    0.9427618125032524 O
   0.0776897919714731    0.2870041958430751    0.5676310525412332 O
   0.9903644118577484    0.3021889914503015    0.1326839235036018 O
   0.1911377144635710    0.7883008915236500    0.8835779671246369 O
   0.0456373224521291    0.8487460917059113    0.1528159047076024 O
   0.2358975548421683    0.2023064077289936    0.3647999877204144 O
   0.6294847042909902    0.3152722049504311    0.4529051582132876 O
   0.6994155886503303    0.7796766707793673    0.0881275669072132 O
   0.5042749275710103    0.9262966639730553    0.8044134711816480 O
   0.6848873065094047    0.8862203685559218    0.4376470282122310 O
   0.4990225285622502    0.1708646163897828    0.5168199391144886 O
   0.8635682022312943    0.3705744225225395    0.9759123753915165 O
   0.7336148136288781    0.9298612855746107    0.5771252684066781 O
   0.9393948710517164    0.6800191326349004    0.0625557553645012 O
   0.6695536212027369    0.3403065164661605    0.6494005261396614 O
   0.1634216657379187    0.3431149255976210    0.3925807126773184 O
   0.5869318613686967    0.0192668889906040    0.5621626539452647 O
   0.0055859102798936    0.7879262613821841    0.4518039559719965 O
   0.5138492324853079    0.8786697054854611    0.9852065749988191 O
   0.5443599409186333    0.5714522570276888    0.5954171235212676 O
   0.6942891003667180    0.6751035851484871    0.4393458224350417 O
   0.1878794249310626    0.4417741458507551    0.5580119571166482 O
   0.7866082802840563    0.8597076929501760    0.8035872793195359 O
   0.5233848104233029    0.5049569521700875    0.7840900220178350 O
