Cs18 In12 Cl54
1.0
   6.4194346330774845  -11.1187869403574755    0.0000000000000000
   6.4194346330774845   11.1187869403574755    0.0000000000000000
   0.0000000000000000    0.0000000000000000   18.4563300222022129
Cs In Cl
18 12 54
direct
   0.0072203766666667    0.3333333333333333    0.0833333333333333 Cs+
   0.6666666666666667    0.6738870433333334    0.0833333333333333 Cs+
   0.3261129566666666    0.9927796233333334    0.0833333333333333 Cs+
   0.6594462900000000    0.0000000000000000    0.2500000000000000 Cs+
   0.0000000000000000    0.6594462900000000    0.2500000000000000 Cs+
   0.3405537100000000    0.3405537100000000    0.2500000000000000 Cs+
   0.6738870433333333    0.6666666666666666    0.4166666666666666 Cs+
   0.3333333333333335    0.0072203766666668    0.4166666666666666 Cs+
   0.9927796233333332    0.3261129566666667    0.4166666666666666 Cs+
   0.3261129566666665    0.3333333333333333    0.5833333333333333 Cs+
   0.6666666666666666    0.9927796233333332    0.5833333333333333 Cs+
   0.0072203766666665    0.6738870433333333    0.5833333333333333 Cs+
   0.3405537100000000    0.0000000000000000    0.7500000000000000 Cs+
   0.0000000000000000    0.3405537100000000    0.7500000000000000 Cs+
   0.6594462900000000    0.6594462900000000    0.7500000000000000 Cs+
   0.9927796233333332    0.6666666666666666    0.9166666666666666 Cs+
   0.3333333333333333    0.3261129566666665    0.9166666666666666 Cs+
   0.6738870433333333    0.0072203766666665    0.9166666666666666 Cs+
   0.3333333333333333    0.6666666666666666    0.3192136866666667 In3+
   0.3333333333333333    0.6666666666666666    0.5141196466666667 In3+
   0.3333333333333333    0.6666666666666667    0.0141196466666666 In3+
   0.3333333333333334    0.6666666666666667    0.8192136866666667 In3+
   0.0000000000000000    0.0000000000000000    0.6525470200000001 In3+
   0.9999999999999999    0.0000000000000000    0.8474529799999999 In3+
   0.0000000000000000    0.0000000000000000    0.3474529799999999 In3+
   0.0000000000000000    0.0000000000000000    0.1525470200000001 In3+
   0.6666666666666666    0.3333333333333333    0.9858803533333333 In3+
   0.6666666666666665    0.3333333333333333    0.1807863133333334 In3+
   0.6666666666666666    0.3333333333333335    0.6807863133333332 In3+
   0.6666666666666667    0.3333333333333335    0.4858803533333333 In3+
   0.8328572966666666    0.0031720233333333    0.0911368733333333 Cl-
   0.9968279766666668    0.8296852733333333    0.0911368733333333 Cl-
   0.1703147266666667    0.1671427033333334    0.0911368733333333 Cl-
   0.1630186066666666    0.6634946433333333    0.0755297933333333 Cl-
   0.3365053566666666    0.4995239633333333    0.0755297933333333 Cl-
   0.5004760366666667    0.8369813933333333    0.0755297933333333 Cl-
   0.8338093700000000    0.3301613100000000    0.2421964600000000 Cl-
   0.6698386900000000    0.5036480600000000    0.2421964600000000 Cl-
   0.4963519399999998    0.1661906300000000    0.2421964600000000 Cl-
   0.5036480600000000    0.6698386900000000    0.2578035399999999 Cl-
   0.3333333333333333    0.5142120466666668    0.4166666666666667 Cl-
   0.1808787133333334    0.6666666666666667    0.4166666666666667 Cl-
   0.4857879533333332    0.8191212866666666    0.4166666666666667 Cl-
   0.3333333333333333    0.8191212866666666    0.9166666666666667 Cl-
   0.4857879533333332    0.6666666666666667    0.9166666666666667 Cl-
   0.1808787133333334    0.5142120466666668    0.9166666666666667 Cl-
   0.1661906300000000    0.4963519399999998    0.2578035399999999 Cl-
   0.3301613100000000    0.8338093700000000    0.2578035399999999 Cl-
   0.4995239633333333    0.3365053566666666    0.4244702066666666 Cl-
   0.6634946433333333    0.1630186066666666    0.4244702066666666 Cl-
   0.8369813933333333    0.5004760366666667    0.4244702066666666 Cl-
   0.8296852733333332    0.9968279766666666    0.4088631266666667 Cl-
   0.0031720233333332    0.8328572966666665    0.4088631266666667 Cl-
   0.1671427033333335    0.1703147266666667    0.4088631266666667 Cl-
   0.5004760366666665    0.6634946433333333    0.5755297933333333 Cl-
   0.3365053566666667    0.8369813933333332    0.5755297933333333 Cl-
   0.1630186066666663    0.4995239633333333    0.5755297933333333 Cl-
   0.1703147266666667    0.0031720233333332    0.5911368733333333 Cl-
   0.0000000000000000    0.8475453800000001    0.7500000000000000 Cl-
   0.8475453800000001    0.0000000000000000    0.7500000000000000 Cl-
   0.1524546199999999    0.1524546199999999    0.7500000000000000 Cl-
   0.0000000000000000    0.1524546199999999    0.2500000000000000 Cl-
   0.1524546199999999    0.0000000000000000    0.2500000000000000 Cl-
   0.8475453800000001    0.8475453800000001    0.2500000000000000 Cl-
   0.8328572966666666    0.8296852733333331    0.5911368733333333 Cl-
   0.9968279766666667    0.1671427033333333    0.5911368733333333 Cl-
   0.1661906300000000    0.6698386900000000    0.7578035399999999 Cl-
   0.3301613100000000    0.4963519399999998    0.7578035399999999 Cl-
   0.5036480600000000    0.8338093700000000    0.7578035399999999 Cl-
   0.4963519399999999    0.3301613099999998    0.7421964599999999 Cl-
   0.6698386900000000    0.1661906300000000    0.7421964599999999 Cl-
   0.8338093700000000    0.5036480600000000    0.7421964599999999 Cl-
   0.1671427033333333    0.9968279766666667    0.9088631266666667 Cl-
   0.0031720233333332    0.1703147266666667    0.9088631266666667 Cl-
   0.8296852733333331    0.8328572966666666    0.9088631266666667 Cl-
   0.8369813933333332    0.3365053566666667    0.9244702066666666 Cl-
   0.6666666666666666    0.1808787133333334    0.0833333333333333 Cl-
   0.5142120466666668    0.3333333333333335    0.0833333333333333 Cl-
   0.8191212866666666    0.4857879533333334    0.0833333333333333 Cl-
   0.6666666666666666    0.4857879533333334    0.5833333333333335 Cl-
   0.8191212866666666    0.3333333333333335    0.5833333333333335 Cl-
   0.5142120466666668    0.1808787133333334    0.5833333333333335 Cl-
   0.4995239633333333    0.1630186066666663    0.9244702066666666 Cl-
   0.6634946433333333    0.5004760366666665    0.9244702066666666 Cl-
