Cs3 Bi2 Br9
1.0
   4.0070136967887402   -6.9403513094624891    0.0000000000000000
   4.0070136967887402    6.9403513094624891    0.0000000000000000
   0.0000000000000000    0.0000000000000000    9.9448007599999997
Cs Bi Br
3 2 9
direct
   0.3333333333333333    0.6666666666666666    0.3372325000000001 Cs+
   0.6666666666666667    0.3333333333333334    0.6627675000000000 Cs+
   0.0000000000000000    0.0000000000000000    0.0000000000000000 Cs+
   0.3333333333333333    0.6666666666666666    0.8104526900000002 Bi3+
   0.6666666666666667    0.3333333333333334    0.1895473099999998 Bi3+
   0.1669261383333334    0.3338522766666667    0.6624067900000000 Br-
   0.6661477233333333    0.8330738616666666    0.6624067900000000 Br-
   0.1669261383333334    0.8330738616666666    0.6624067900000000 Br-
   0.8330738616666666    0.6661477233333333    0.3375932100000000 Br-
   0.8330738616666666    0.1669261383333334    0.3375932100000000 Br-
   0.5000000000000000    0.5000000000000000    0.0000000000000000 Br-
   0.5000000000000000    0.0000000000000000    0.0000000000000000 Br-
   0.0000000000000000    0.5000000000000000    0.0000000000000000 Br-
   0.3338522766666667    0.1669261383333334    0.3375932100000000 Br-
